Route #1: 25 32 96 33
Route #2: 18 97 95
Route #3: 88 44 30 37 73 58 89 41
Route #4: 35 65 4 60 78
Route #5: 61 83 45
Route #6: 68 15 64
Route #7: 29 38 7 79 66
Route #8: 43 50 46 3 8
Route #9: 40 26 11
Route #10: 57 27 49 48 39
Route #11: 5 14 70 77 91
Route #12: 67 75 19
Route #13: 85 17 10
Route #14: 56 93 69
Route #15: 55 71 2
Route #16: 90 99 28 101
Route #17: 100 63 92
Route #18: 24 62 22
Route #19: 87 42 23
Route #20: 53 52 72 82
Route #21: 98 84 20
Route #22: 16 21 36 47
Route #23: 59 13 6
Route #24: 74 54 34 76
Route #25: 12 86 31 94
Route #26: 80 51
Route #27: 81 9
